%%% static parameters %%%
timespan = 1;
Fact = [2];
Distr1 = [5];
Distr2 = [10];
Clients_N = [100];
Demand_W = [15];
Lt0 = [4];
Lt1 = [4];
SS_ = [0.85];
DS_D = [8];
K = [200];
MA = [500];
%%% dynamic parameters %%%
lost_ratio_sales_ret_th = 0.8633222378975146;
lost_ratio_sales_ret_w = 44;
lost_ratio_sales_dis_th = 0.49145649879976794;
lost_ratio_sales_dis_w = 96;
lost_ratio_sales_fac_th = 0.47210896726778295;
lost_ratio_sales_fac_w = 32;
stock_customer_MA_mean_relative_th = 0.2376115661375684;
stock_customer_MA_mean_relative_w = 35;
stock_distributor_MA_mean_relative_th = 0.6037211159126866;
stock_distributor_MA_mean_relative_w = 44;
stock_retailer_MA_mean_relative_th = 0.9742945164156668;
stock_retailer_MA_mean_relative_w = 60;
stock_factory_MA_mean_relative_th = 0.0006650340931908527;
stock_factory_MA_mean_relative_w = 20;
